Generations:
0: ((20, 22, 36, 41, 19, 5, 1, 31, 16, 32, 43, 27, 39, 34, 44, 46, 28, 45, 35, 11, 6, 30, 3, 15, 21, 4, 40, 48, 49, 33, 24, 8, 12, 10, 9, 0, 14, 29, 25, 2, 47, 38, 18, 26, 13, 37, 7, 17, 23, 42), 1557)
1: ((20, 22, 36, 41, 19, 5, 1, 31, 16, 32, 43, 27, 39, 34, 44, 46, 28, 45, 35, 11, 6, 30, 3, 15, 21, 4, 40, 48, 49, 33, 24, 8, 12, 10, 9, 0, 14, 29, 25, 2, 47, 38, 18, 26, 13, 37, 7, 17, 23, 42), 1557)
2: ((20, 22, 36, 41, 19, 5, 1, 31, 16, 32, 43, 27, 39, 34, 44, 46, 28, 45, 35, 11, 6, 30, 3, 15, 21, 4, 40, 48, 49, 33, 24, 8, 12, 10, 9, 0, 14, 29, 25, 2, 47, 38, 18, 26, 13, 37, 7, 17, 23, 42), 1557)
3: ((20, 22, 36, 41, 19, 5, 1, 31, 16, 32, 43, 27, 39, 34, 44, 46, 28, 45, 35, 11, 6, 30, 3, 15, 21, 4, 40, 48, 49, 33, 24, 8, 12, 10, 9, 0, 14, 29, 25, 2, 47, 38, 18, 26, 13, 37, 7, 17, 23, 42), 1557)
4: ((20, 22, 36, 41, 19, 5, 1, 31, 16, 32, 43, 27, 39, 34, 44, 46, 28, 45, 35, 11, 6, 30, 3, 15, 21, 4, 40, 48, 49, 33, 24, 8, 12, 10, 9, 0, 14, 29, 25, 2, 47, 38, 18, 26, 13, 37, 7, 17, 23, 42), 1557)
5: ((25, 18, 48, 36, 16, 23, 34, 19, 0, 41, 1, 32, 15, 37, 20, 38, 29, 45, 28, 35, 47, 22, 14, 6, 5, 3, 49, 42, 11, 21, 12, 27, 9, 24, 31, 10, 17, 39, 2, 46, 26, 7, 44, 33, 13, 43, 4, 40, 30, 8), 1556)
6: ((25, 18, 48, 36, 16, 23, 34, 19, 0, 41, 1, 32, 15, 37, 20, 38, 29, 45, 28, 35, 47, 22, 14, 6, 5, 3, 49, 42, 11, 21, 12, 27, 9, 24, 31, 10, 17, 39, 2, 46, 26, 7, 44, 33, 13, 43, 4, 40, 30, 8), 1556)
7: ((25, 18, 48, 36, 16, 23, 34, 19, 0, 41, 1, 32, 15, 37, 20, 38, 29, 45, 28, 35, 47, 22, 14, 6, 5, 3, 49, 42, 11, 21, 12, 27, 9, 24, 31, 10, 17, 39, 2, 46, 26, 7, 44, 33, 13, 43, 4, 40, 30, 8), 1556)
8: ((25, 18, 48, 36, 16, 23, 34, 19, 0, 41, 1, 32, 15, 37, 20, 38, 29, 45, 28, 35, 47, 22, 14, 6, 5, 3, 49, 42, 11, 21, 12, 27, 9, 24, 31, 10, 17, 39, 2, 46, 26, 7, 44, 33, 13, 43, 4, 40, 30, 8), 1556)
9: ((25, 18, 48, 36, 16, 23, 34, 19, 0, 41, 1, 32, 15, 37, 20, 38, 29, 45, 28, 35, 47, 22, 14, 6, 5, 3, 49, 42, 11, 21, 12, 27, 9, 24, 31, 10, 17, 39, 2, 46, 26, 7, 44, 33, 13, 43, 4, 40, 30, 8), 1556)
10: ((25, 18, 48, 36, 16, 23, 34, 19, 0, 41, 1, 32, 15, 37, 20, 38, 29, 45, 28, 35, 47, 22, 14, 6, 5, 3, 49, 42, 11, 21, 12, 27, 9, 24, 31, 10, 17, 39, 2, 46, 26, 7, 44, 33, 13, 43, 4, 40, 30, 8), 1556)
11: ((25, 18, 48, 36, 16, 23, 34, 19, 0, 41, 1, 32, 15, 37, 20, 38, 29, 45, 28, 35, 47, 22, 14, 6, 5, 3, 49, 42, 11, 21, 12, 27, 9, 24, 31, 10, 17, 39, 2, 46, 26, 7, 44, 33, 13, 43, 4, 40, 30, 8), 1556)
12: ((25, 18, 48, 36, 16, 23, 34, 19, 0, 41, 1, 32, 15, 37, 20, 38, 29, 45, 28, 35, 47, 22, 14, 6, 5, 3, 49, 42, 11, 21, 12, 27, 9, 24, 31, 10, 17, 39, 2, 46, 26, 7, 44, 33, 13, 43, 4, 40, 30, 8), 1556)
13: ((25, 18, 48, 36, 16, 23, 34, 19, 0, 41, 1, 32, 15, 37, 20, 38, 29, 45, 28, 35, 47, 22, 14, 6, 5, 3, 49, 42, 11, 21, 12, 27, 9, 24, 31, 10, 17, 39, 2, 46, 26, 7, 44, 33, 13, 43, 4, 40, 30, 8), 1556)
14: ((25, 18, 48, 36, 16, 23, 34, 19, 0, 41, 1, 32, 15, 37, 20, 38, 29, 45, 28, 35, 47, 22, 14, 6, 5, 3, 49, 42, 11, 21, 12, 27, 9, 24, 31, 10, 17, 39, 2, 46, 26, 7, 44, 33, 13, 43, 4, 40, 30, 8), 1556)
15: ((25, 18, 48, 36, 16, 23, 34, 19, 0, 41, 1, 32, 15, 37, 20, 38, 29, 45, 28, 35, 47, 22, 14, 6, 5, 3, 49, 42, 11, 21, 12, 27, 9, 24, 31, 10, 17, 39, 2, 46, 26, 7, 44, 33, 13, 43, 4, 40, 30, 8), 1556)
16: ((25, 18, 48, 36, 16, 23, 34, 19, 0, 41, 1, 32, 15, 37, 20, 38, 29, 45, 28, 35, 47, 22, 14, 6, 5, 3, 49, 42, 11, 21, 12, 27, 9, 24, 31, 10, 17, 39, 2, 46, 26, 7, 44, 33, 13, 43, 4, 40, 30, 8), 1556)
17: ((25, 18, 48, 36, 16, 23, 34, 19, 0, 41, 1, 32, 15, 37, 20, 38, 29, 45, 28, 35, 47, 22, 14, 6, 5, 3, 49, 42, 11, 21, 12, 27, 9, 24, 31, 10, 17, 39, 2, 46, 26, 7, 44, 33, 13, 43, 4, 40, 30, 8), 1556)
18: ((25, 18, 48, 36, 16, 23, 34, 19, 0, 41, 1, 32, 15, 37, 20, 38, 29, 45, 28, 35, 47, 22, 14, 6, 5, 3, 49, 42, 11, 21, 12, 27, 9, 24, 31, 10, 17, 39, 2, 46, 26, 7, 44, 33, 13, 43, 4, 40, 30, 8), 1556)
19: ((25, 18, 48, 36, 16, 23, 34, 19, 0, 41, 1, 32, 15, 37, 20, 38, 29, 45, 28, 35, 47, 22, 14, 6, 5, 3, 49, 42, 11, 21, 12, 27, 9, 24, 31, 10, 17, 39, 2, 46, 26, 7, 44, 33, 13, 43, 4, 40, 30, 8), 1556)
20: ((25, 18, 48, 36, 16, 23, 34, 19, 0, 41, 1, 32, 15, 37, 20, 38, 29, 45, 28, 35, 47, 22, 14, 6, 5, 3, 49, 42, 11, 21, 12, 27, 9, 24, 31, 10, 17, 39, 2, 46, 26, 7, 44, 33, 13, 43, 4, 40, 30, 8), 1556)
21: ((25, 18, 48, 36, 16, 23, 34, 19, 0, 41, 1, 32, 15, 37, 20, 38, 29, 45, 28, 35, 47, 22, 14, 6, 5, 3, 49, 42, 11, 21, 12, 27, 9, 24, 31, 10, 17, 39, 2, 46, 26, 7, 44, 33, 13, 43, 4, 40, 30, 8), 1556)
22: ((25, 18, 48, 36, 16, 23, 34, 19, 0, 41, 1, 32, 15, 37, 20, 38, 29, 45, 28, 35, 47, 22, 14, 6, 5, 3, 49, 42, 11, 21, 12, 27, 9, 24, 31, 10, 17, 39, 2, 46, 26, 7, 44, 33, 13, 43, 4, 40, 30, 8), 1556)
23: ((25, 18, 48, 36, 16, 23, 34, 19, 0, 41, 1, 32, 15, 37, 20, 38, 29, 45, 28, 35, 47, 22, 14, 6, 5, 3, 49, 42, 11, 21, 12, 27, 9, 24, 31, 10, 17, 39, 2, 46, 26, 7, 44, 33, 13, 43, 4, 40, 30, 8), 1556)
24: ((25, 18, 48, 36, 16, 23, 34, 19, 0, 41, 1, 32, 15, 37, 20, 38, 29, 45, 28, 35, 47, 22, 14, 6, 5, 3, 49, 42, 11, 21, 12, 27, 9, 24, 31, 10, 17, 39, 2, 46, 26, 7, 44, 33, 13, 43, 4, 40, 30, 8), 1556)
25: ((25, 18, 48, 36, 16, 23, 34, 19, 0, 41, 1, 32, 15, 37, 20, 38, 29, 45, 28, 35, 47, 22, 14, 6, 5, 3, 49, 42, 11, 21, 12, 27, 9, 24, 31, 10, 17, 39, 2, 46, 26, 7, 44, 33, 13, 43, 4, 40, 30, 8), 1556)
26: ((25, 18, 48, 36, 16, 23, 34, 19, 0, 41, 1, 32, 15, 37, 20, 38, 29, 45, 28, 35, 47, 22, 14, 6, 5, 3, 49, 42, 11, 21, 12, 27, 9, 24, 31, 10, 17, 39, 2, 46, 26, 7, 44, 33, 13, 43, 4, 40, 30, 8), 1556)
27: ((25, 18, 48, 36, 16, 23, 34, 19, 0, 41, 1, 32, 15, 37, 20, 38, 29, 45, 28, 35, 47, 22, 14, 6, 5, 3, 49, 42, 11, 21, 12, 27, 9, 24, 31, 10, 17, 39, 2, 46, 26, 7, 44, 33, 13, 43, 4, 40, 30, 8), 1556)
28: ((25, 18, 48, 36, 16, 23, 34, 19, 0, 41, 1, 32, 15, 37, 20, 38, 29, 45, 28, 35, 47, 22, 14, 6, 5, 3, 49, 42, 11, 21, 12, 27, 9, 24, 31, 10, 17, 39, 2, 46, 26, 7, 44, 33, 13, 43, 4, 40, 30, 8), 1556)
29: ((25, 18, 48, 36, 16, 23, 34, 19, 0, 41, 1, 32, 15, 37, 20, 38, 29, 45, 28, 35, 47, 22, 14, 6, 5, 3, 49, 42, 11, 21, 12, 27, 9, 24, 31, 10, 17, 39, 2, 46, 26, 7, 44, 33, 13, 43, 4, 40, 30, 8), 1556)
30: ((25, 18, 48, 36, 16, 23, 34, 19, 0, 41, 1, 32, 15, 37, 20, 38, 29, 45, 28, 35, 47, 22, 14, 6, 5, 3, 49, 42, 11, 21, 12, 27, 9, 24, 31, 10, 17, 39, 2, 46, 26, 7, 44, 33, 13, 43, 4, 40, 30, 8), 1556)
31: ((25, 18, 48, 36, 16, 23, 34, 19, 0, 41, 1, 32, 15, 37, 20, 38, 29, 45, 28, 35, 47, 22, 14, 6, 5, 3, 49, 42, 11, 21, 12, 27, 9, 24, 31, 10, 17, 39, 2, 46, 26, 7, 44, 33, 13, 43, 4, 40, 30, 8), 1556)
32: ((25, 18, 48, 36, 16, 23, 34, 19, 0, 41, 1, 32, 15, 37, 20, 38, 29, 45, 28, 35, 47, 22, 14, 6, 5, 3, 49, 42, 11, 21, 12, 27, 9, 24, 31, 10, 17, 39, 2, 46, 26, 7, 44, 33, 13, 43, 4, 40, 30, 8), 1556)
33: ((25, 18, 48, 36, 16, 23, 34, 19, 0, 41, 1, 32, 15, 37, 20, 38, 29, 45, 28, 35, 47, 22, 14, 6, 5, 3, 49, 42, 11, 21, 12, 27, 9, 24, 31, 10, 17, 39, 2, 46, 26, 7, 44, 33, 13, 43, 4, 40, 30, 8), 1556)
34: ((25, 18, 48, 36, 16, 23, 34, 19, 0, 41, 1, 32, 15, 37, 20, 38, 29, 45, 28, 35, 47, 22, 14, 6, 5, 3, 49, 42, 11, 21, 12, 27, 9, 24, 31, 10, 17, 39, 2, 46, 26, 7, 44, 33, 13, 43, 4, 40, 30, 8), 1556)
35: ((25, 18, 48, 36, 16, 23, 34, 19, 0, 41, 1, 32, 15, 37, 20, 38, 29, 45, 28, 35, 47, 22, 14, 6, 5, 3, 49, 42, 11, 21, 12, 27, 9, 24, 31, 10, 17, 39, 2, 46, 26, 7, 44, 33, 13, 43, 4, 40, 30, 8), 1556)
36: ((25, 18, 48, 36, 16, 23, 34, 19, 0, 41, 1, 32, 15, 37, 20, 38, 29, 45, 28, 35, 47, 22, 14, 6, 5, 3, 49, 42, 11, 21, 12, 27, 9, 24, 31, 10, 17, 39, 2, 46, 26, 7, 44, 33, 13, 43, 4, 40, 30, 8), 1556)
37: ((25, 18, 48, 36, 16, 23, 34, 19, 0, 41, 1, 32, 15, 37, 20, 38, 29, 45, 28, 35, 47, 22, 14, 6, 5, 3, 49, 42, 11, 21, 12, 27, 9, 24, 31, 10, 17, 39, 2, 46, 26, 7, 44, 33, 13, 43, 4, 40, 30, 8), 1556)
38: ((25, 18, 48, 36, 16, 23, 34, 19, 0, 41, 1, 32, 15, 37, 20, 38, 29, 45, 28, 35, 47, 22, 14, 6, 5, 3, 49, 42, 11, 21, 12, 27, 9, 24, 31, 10, 17, 39, 2, 46, 26, 7, 44, 33, 13, 43, 4, 40, 30, 8), 1556)
39: ((25, 18, 48, 36, 16, 23, 34, 19, 0, 41, 1, 32, 15, 37, 20, 38, 29, 45, 28, 35, 47, 22, 14, 6, 5, 3, 49, 42, 11, 21, 12, 27, 9, 24, 31, 10, 17, 39, 2, 46, 26, 7, 44, 33, 13, 43, 4, 40, 30, 8), 1556)
40: ((25, 18, 48, 36, 16, 23, 34, 19, 0, 41, 1, 32, 15, 37, 20, 38, 29, 45, 28, 35, 47, 22, 14, 6, 5, 3, 49, 42, 11, 21, 12, 27, 9, 24, 31, 10, 17, 39, 2, 46, 26, 7, 44, 33, 13, 43, 4, 40, 30, 8), 1556)
41: ((25, 18, 48, 36, 16, 23, 34, 19, 0, 41, 1, 32, 15, 37, 20, 38, 29, 45, 28, 35, 47, 22, 14, 6, 5, 3, 49, 42, 11, 21, 12, 27, 9, 24, 31, 10, 17, 39, 2, 46, 26, 7, 44, 33, 13, 43, 4, 40, 30, 8), 1556)
42: ((25, 18, 48, 36, 16, 23, 34, 19, 0, 41, 1, 32, 15, 37, 20, 38, 29, 45, 28, 35, 47, 22, 14, 6, 5, 3, 49, 42, 11, 21, 12, 27, 9, 24, 31, 10, 17, 39, 2, 46, 26, 7, 44, 33, 13, 43, 4, 40, 30, 8), 1556)
43: ((25, 18, 48, 36, 16, 23, 34, 19, 0, 41, 1, 32, 15, 37, 20, 38, 29, 45, 28, 35, 47, 22, 14, 6, 5, 3, 49, 42, 11, 21, 12, 27, 9, 24, 31, 10, 17, 39, 2, 46, 26, 7, 44, 33, 13, 43, 4, 40, 30, 8), 1556)
44: ((25, 18, 48, 36, 16, 23, 34, 19, 0, 41, 1, 32, 15, 37, 20, 38, 29, 45, 28, 35, 47, 22, 14, 6, 5, 3, 49, 42, 11, 21, 12, 27, 9, 24, 31, 10, 17, 39, 2, 46, 26, 7, 44, 33, 13, 43, 4, 40, 30, 8), 1556)
45: ((25, 18, 48, 36, 16, 23, 34, 19, 0, 41, 1, 32, 15, 37, 20, 38, 29, 45, 28, 35, 47, 22, 14, 6, 5, 3, 49, 42, 11, 21, 12, 27, 9, 24, 31, 10, 17, 39, 2, 46, 26, 7, 44, 33, 13, 43, 4, 40, 30, 8), 1556)
46: ((25, 18, 48, 36, 16, 23, 34, 19, 0, 41, 1, 32, 15, 37, 20, 38, 29, 45, 28, 35, 47, 22, 14, 6, 5, 3, 49, 42, 11, 21, 12, 27, 9, 24, 31, 10, 17, 39, 2, 46, 26, 7, 44, 33, 13, 43, 4, 40, 30, 8), 1556)
47: ((25, 18, 48, 36, 16, 23, 34, 19, 0, 41, 1, 32, 15, 37, 20, 38, 29, 45, 28, 35, 47, 22, 14, 6, 5, 3, 49, 42, 11, 21, 12, 27, 9, 24, 31, 10, 17, 39, 2, 46, 26, 7, 44, 33, 13, 43, 4, 40, 30, 8), 1556)
48: ((25, 18, 48, 36, 16, 23, 34, 19, 0, 41, 1, 32, 15, 37, 20, 38, 29, 45, 28, 35, 47, 22, 14, 6, 5, 3, 49, 42, 11, 21, 12, 27, 9, 24, 31, 10, 17, 39, 2, 46, 26, 7, 44, 33, 13, 43, 4, 40, 30, 8), 1556)
49: ((25, 18, 48, 36, 16, 23, 34, 19, 0, 41, 1, 32, 15, 37, 20, 38, 29, 45, 28, 35, 47, 22, 14, 6, 5, 3, 49, 42, 11, 21, 12, 27, 9, 24, 31, 10, 17, 39, 2, 46, 26, 7, 44, 33, 13, 43, 4, 40, 30, 8), 1556)
50: ((25, 18, 48, 36, 16, 23, 34, 19, 0, 41, 1, 32, 15, 37, 20, 38, 29, 45, 28, 35, 47, 22, 14, 6, 5, 3, 49, 42, 11, 21, 12, 27, 9, 24, 31, 10, 17, 39, 2, 46, 26, 7, 44, 33, 13, 43, 4, 40, 30, 8), 1556)
51: ((25, 18, 48, 36, 16, 23, 34, 19, 0, 41, 1, 32, 15, 37, 20, 38, 29, 45, 28, 35, 47, 22, 14, 6, 5, 3, 49, 42, 11, 21, 12, 27, 9, 24, 31, 10, 17, 39, 2, 46, 26, 7, 44, 33, 13, 43, 4, 40, 30, 8), 1556)
52: ((25, 18, 48, 36, 16, 23, 34, 19, 0, 41, 1, 32, 15, 37, 20, 38, 29, 45, 28, 35, 47, 22, 14, 6, 5, 3, 49, 42, 11, 21, 12, 27, 9, 24, 31, 10, 17, 39, 2, 46, 26, 7, 44, 33, 13, 43, 4, 40, 30, 8), 1556)
53: ((25, 18, 48, 36, 16, 23, 34, 19, 0, 41, 1, 32, 15, 37, 20, 38, 29, 45, 28, 35, 47, 22, 14, 6, 5, 3, 49, 42, 11, 21, 12, 27, 9, 24, 31, 10, 17, 39, 2, 46, 26, 7, 44, 33, 13, 43, 4, 40, 30, 8), 1556)
54: ((25, 18, 48, 36, 16, 23, 34, 19, 0, 41, 1, 32, 15, 37, 20, 38, 29, 45, 28, 35, 47, 22, 14, 6, 5, 3, 49, 42, 11, 21, 12, 27, 9, 24, 31, 10, 17, 39, 2, 46, 26, 7, 44, 33, 13, 43, 4, 40, 30, 8), 1556)
55: ((25, 18, 48, 36, 16, 23, 34, 19, 0, 41, 1, 32, 15, 37, 20, 38, 29, 45, 28, 35, 47, 22, 14, 6, 5, 3, 49, 42, 11, 21, 12, 27, 9, 24, 31, 10, 17, 39, 2, 46, 26, 7, 44, 33, 13, 43, 4, 40, 30, 8), 1556)
56: ((25, 18, 48, 36, 16, 23, 34, 19, 0, 41, 1, 32, 15, 37, 20, 38, 29, 45, 28, 35, 47, 22, 14, 6, 5, 3, 49, 42, 11, 21, 12, 27, 9, 24, 31, 10, 17, 39, 2, 46, 26, 7, 44, 33, 13, 43, 4, 40, 30, 8), 1556)
57: ((25, 18, 48, 36, 16, 23, 34, 19, 0, 41, 1, 32, 15, 37, 20, 38, 29, 45, 28, 35, 47, 22, 14, 6, 5, 3, 49, 42, 11, 21, 12, 27, 9, 24, 31, 10, 17, 39, 2, 46, 26, 7, 44, 33, 13, 43, 4, 40, 30, 8), 1556)
58: ((25, 18, 48, 36, 16, 23, 34, 19, 0, 41, 1, 32, 15, 37, 20, 38, 29, 45, 28, 35, 47, 22, 14, 6, 5, 3, 49, 42, 11, 21, 12, 27, 9, 24, 31, 10, 17, 39, 2, 46, 26, 7, 44, 33, 13, 43, 4, 40, 30, 8), 1556)
59: ((25, 18, 48, 36, 16, 23, 34, 19, 0, 41, 1, 32, 15, 37, 20, 38, 29, 45, 28, 35, 47, 22, 14, 6, 5, 3, 49, 42, 11, 21, 12, 27, 9, 24, 31, 10, 17, 39, 2, 46, 26, 7, 44, 33, 13, 43, 4, 40, 30, 8), 1556)
60: ((25, 18, 48, 36, 16, 23, 34, 19, 0, 41, 1, 32, 15, 37, 20, 38, 29, 45, 28, 35, 47, 22, 14, 6, 5, 3, 49, 42, 11, 21, 12, 27, 9, 24, 31, 10, 17, 39, 2, 46, 26, 7, 44, 33, 13, 43, 4, 40, 30, 8), 1556)
61: ((25, 18, 48, 36, 16, 23, 34, 19, 0, 41, 1, 32, 15, 37, 20, 38, 29, 45, 28, 35, 47, 22, 14, 6, 5, 3, 49, 42, 11, 21, 12, 27, 9, 24, 31, 10, 17, 39, 2, 46, 26, 7, 44, 33, 13, 43, 4, 40, 30, 8), 1556)
62: ((25, 18, 48, 36, 16, 23, 34, 19, 0, 41, 1, 32, 15, 37, 20, 38, 29, 45, 28, 35, 47, 22, 14, 6, 5, 3, 49, 42, 11, 21, 12, 27, 9, 24, 31, 10, 17, 39, 2, 46, 26, 7, 44, 33, 13, 43, 4, 40, 30, 8), 1556)
63: ((25, 18, 48, 36, 16, 23, 34, 19, 0, 41, 1, 32, 15, 37, 20, 38, 29, 45, 28, 35, 47, 22, 14, 6, 5, 3, 49, 42, 11, 21, 12, 27, 9, 24, 31, 10, 17, 39, 2, 46, 26, 7, 44, 33, 13, 43, 4, 40, 30, 8), 1556)
64: ((25, 18, 48, 36, 16, 23, 34, 19, 0, 41, 1, 32, 15, 37, 20, 38, 29, 45, 28, 35, 47, 22, 14, 6, 5, 3, 49, 42, 11, 21, 12, 27, 9, 24, 31, 10, 17, 39, 2, 46, 26, 7, 44, 33, 13, 43, 4, 40, 30, 8), 1556)
65: ((25, 18, 48, 36, 16, 23, 34, 19, 0, 41, 1, 32, 15, 37, 20, 38, 29, 45, 28, 35, 47, 22, 14, 6, 5, 3, 49, 42, 11, 21, 12, 27, 9, 24, 31, 10, 17, 39, 2, 46, 26, 7, 44, 33, 13, 43, 4, 40, 30, 8), 1556)
66: ((25, 18, 48, 36, 16, 23, 34, 19, 0, 41, 1, 32, 15, 37, 20, 38, 29, 45, 28, 35, 47, 22, 14, 6, 5, 3, 49, 42, 11, 21, 12, 27, 9, 24, 31, 10, 17, 39, 2, 46, 26, 7, 44, 33, 13, 43, 4, 40, 30, 8), 1556)
67: ((25, 18, 48, 36, 16, 23, 34, 19, 0, 41, 1, 32, 15, 37, 20, 38, 29, 45, 28, 35, 47, 22, 14, 6, 5, 3, 49, 42, 11, 21, 12, 27, 9, 24, 31, 10, 17, 39, 2, 46, 26, 7, 44, 33, 13, 43, 4, 40, 30, 8), 1556)
68: ((25, 18, 48, 36, 16, 23, 34, 19, 0, 41, 1, 32, 15, 37, 20, 38, 29, 45, 28, 35, 47, 22, 14, 6, 5, 3, 49, 42, 11, 21, 12, 27, 9, 24, 31, 10, 17, 39, 2, 46, 26, 7, 44, 33, 13, 43, 4, 40, 30, 8), 1556)
69: ((25, 18, 48, 36, 16, 23, 34, 19, 0, 41, 1, 32, 15, 37, 20, 38, 29, 45, 28, 35, 47, 22, 14, 6, 5, 3, 49, 42, 11, 21, 12, 27, 9, 24, 31, 10, 17, 39, 2, 46, 26, 7, 44, 33, 13, 43, 4, 40, 30, 8), 1556)
70: ((25, 18, 48, 36, 16, 23, 34, 19, 0, 41, 1, 32, 15, 37, 20, 38, 29, 45, 28, 35, 47, 22, 14, 6, 5, 3, 49, 42, 11, 21, 12, 27, 9, 24, 31, 10, 17, 39, 2, 46, 26, 7, 44, 33, 13, 43, 4, 40, 30, 8), 1556)
71: ((25, 18, 48, 36, 16, 23, 34, 19, 0, 41, 1, 32, 15, 37, 20, 38, 29, 45, 28, 35, 47, 22, 14, 6, 5, 3, 49, 42, 11, 21, 12, 27, 9, 24, 31, 10, 17, 39, 2, 46, 26, 7, 44, 33, 13, 43, 4, 40, 30, 8), 1556)
72: ((25, 18, 48, 36, 16, 23, 34, 19, 0, 41, 1, 32, 15, 37, 20, 38, 29, 45, 28, 35, 47, 22, 14, 6, 5, 3, 49, 42, 11, 21, 12, 27, 9, 24, 31, 10, 17, 39, 2, 46, 26, 7, 44, 33, 13, 43, 4, 40, 30, 8), 1556)
73: ((25, 18, 48, 36, 16, 23, 34, 19, 0, 41, 1, 32, 15, 37, 20, 38, 29, 45, 28, 35, 47, 22, 14, 6, 5, 3, 49, 42, 11, 21, 12, 27, 9, 24, 31, 10, 17, 39, 2, 46, 26, 7, 44, 33, 13, 43, 4, 40, 30, 8), 1556)
74: ((25, 18, 48, 36, 16, 23, 34, 19, 0, 41, 1, 32, 15, 37, 20, 38, 29, 45, 28, 35, 47, 22, 14, 6, 5, 3, 49, 42, 11, 21, 12, 27, 9, 24, 31, 10, 17, 39, 2, 46, 26, 7, 44, 33, 13, 43, 4, 40, 30, 8), 1556)
75: ((25, 18, 48, 36, 16, 23, 34, 19, 0, 41, 1, 32, 15, 37, 20, 38, 29, 45, 28, 35, 47, 22, 14, 6, 5, 3, 49, 42, 11, 21, 12, 27, 9, 24, 31, 10, 17, 39, 2, 46, 26, 7, 44, 33, 13, 43, 4, 40, 30, 8), 1556)
76: ((25, 18, 48, 36, 16, 23, 34, 19, 0, 41, 1, 32, 15, 37, 20, 38, 29, 45, 28, 35, 47, 22, 14, 6, 5, 3, 49, 42, 11, 21, 12, 27, 9, 24, 31, 10, 17, 39, 2, 46, 26, 7, 44, 33, 13, 43, 4, 40, 30, 8), 1556)
77: ((25, 18, 48, 36, 16, 23, 34, 19, 0, 41, 1, 32, 15, 37, 20, 38, 29, 45, 28, 35, 47, 22, 14, 6, 5, 3, 49, 42, 11, 21, 12, 27, 9, 24, 31, 10, 17, 39, 2, 46, 26, 7, 44, 33, 13, 43, 4, 40, 30, 8), 1556)
78: ((25, 18, 48, 36, 16, 23, 34, 19, 0, 41, 1, 32, 15, 37, 20, 38, 29, 45, 28, 35, 47, 22, 14, 6, 5, 3, 49, 42, 11, 21, 12, 27, 9, 24, 31, 10, 17, 39, 2, 46, 26, 7, 44, 33, 13, 43, 4, 40, 30, 8), 1556)
79: ((25, 18, 48, 36, 16, 23, 34, 19, 0, 41, 1, 32, 15, 37, 20, 38, 29, 45, 28, 35, 47, 22, 14, 6, 5, 3, 49, 42, 11, 21, 12, 27, 9, 24, 31, 10, 17, 39, 2, 46, 26, 7, 44, 33, 13, 43, 4, 40, 30, 8), 1556)
80: ((25, 18, 48, 36, 16, 23, 34, 19, 0, 41, 1, 32, 15, 37, 20, 38, 29, 45, 28, 35, 47, 22, 14, 6, 5, 3, 49, 42, 11, 21, 12, 27, 9, 24, 31, 10, 17, 39, 2, 46, 26, 7, 44, 33, 13, 43, 4, 40, 30, 8), 1556)
81: ((25, 18, 48, 36, 16, 23, 34, 19, 0, 41, 1, 32, 15, 37, 20, 38, 29, 45, 28, 35, 47, 22, 14, 6, 5, 3, 49, 42, 11, 21, 12, 27, 9, 24, 31, 10, 17, 39, 2, 46, 26, 7, 44, 33, 13, 43, 4, 40, 30, 8), 1556)
82: ((25, 18, 48, 36, 16, 23, 34, 19, 0, 41, 1, 32, 15, 37, 20, 38, 29, 45, 28, 35, 47, 22, 14, 6, 5, 3, 49, 42, 11, 21, 12, 27, 9, 24, 31, 10, 17, 39, 2, 46, 26, 7, 44, 33, 13, 43, 4, 40, 30, 8), 1556)
83: ((25, 18, 48, 36, 16, 23, 34, 19, 0, 41, 1, 32, 15, 37, 20, 38, 29, 45, 28, 35, 47, 22, 14, 6, 5, 3, 49, 42, 11, 21, 12, 27, 9, 24, 31, 10, 17, 39, 2, 46, 26, 7, 44, 33, 13, 43, 4, 40, 30, 8), 1556)
84: ((25, 18, 48, 36, 16, 23, 34, 19, 0, 41, 1, 32, 15, 37, 20, 38, 29, 45, 28, 35, 47, 22, 14, 6, 5, 3, 49, 42, 11, 21, 12, 27, 9, 24, 31, 10, 17, 39, 2, 46, 26, 7, 44, 33, 13, 43, 4, 40, 30, 8), 1556)
85: ((25, 18, 48, 36, 16, 23, 34, 19, 0, 41, 1, 32, 15, 37, 20, 38, 29, 45, 28, 35, 47, 22, 14, 6, 5, 3, 49, 42, 11, 21, 12, 27, 9, 24, 31, 10, 17, 39, 2, 46, 26, 7, 44, 33, 13, 43, 4, 40, 30, 8), 1556)
86: ((25, 18, 48, 36, 16, 23, 34, 19, 0, 41, 1, 32, 15, 37, 20, 38, 29, 45, 28, 35, 47, 22, 14, 6, 5, 3, 49, 42, 11, 21, 12, 27, 9, 24, 31, 10, 17, 39, 2, 46, 26, 7, 44, 33, 13, 43, 4, 40, 30, 8), 1556)
87: ((25, 18, 48, 36, 16, 23, 34, 19, 0, 41, 1, 32, 15, 37, 20, 38, 29, 45, 28, 35, 47, 22, 14, 6, 5, 3, 49, 42, 11, 21, 12, 27, 9, 24, 31, 10, 17, 39, 2, 46, 26, 7, 44, 33, 13, 43, 4, 40, 30, 8), 1556)
88: ((25, 18, 48, 36, 16, 23, 34, 19, 0, 41, 1, 32, 15, 37, 20, 38, 29, 45, 28, 35, 47, 22, 14, 6, 5, 3, 49, 42, 11, 21, 12, 27, 9, 24, 31, 10, 17, 39, 2, 46, 26, 7, 44, 33, 13, 43, 4, 40, 30, 8), 1556)
89: ((25, 18, 48, 36, 16, 23, 34, 19, 0, 41, 1, 32, 15, 37, 20, 38, 29, 45, 28, 35, 47, 22, 14, 6, 5, 3, 49, 42, 11, 21, 12, 27, 9, 24, 31, 10, 17, 39, 2, 46, 26, 7, 44, 33, 13, 43, 4, 40, 30, 8), 1556)
90: ((25, 18, 48, 36, 16, 23, 34, 19, 0, 41, 1, 32, 15, 37, 20, 38, 29, 45, 28, 35, 47, 22, 14, 6, 5, 3, 49, 42, 11, 21, 12, 27, 9, 24, 31, 10, 17, 39, 2, 46, 26, 7, 44, 33, 13, 43, 4, 40, 30, 8), 1556)
91: ((25, 18, 48, 36, 16, 23, 34, 19, 0, 41, 1, 32, 15, 37, 20, 38, 29, 45, 28, 35, 47, 22, 14, 6, 5, 3, 49, 42, 11, 21, 12, 27, 9, 24, 31, 10, 17, 39, 2, 46, 26, 7, 44, 33, 13, 43, 4, 40, 30, 8), 1556)
92: ((25, 18, 48, 36, 16, 23, 34, 19, 0, 41, 1, 32, 15, 37, 20, 38, 29, 45, 28, 35, 47, 22, 14, 6, 5, 3, 49, 42, 11, 21, 12, 27, 9, 24, 31, 10, 17, 39, 2, 46, 26, 7, 44, 33, 13, 43, 4, 40, 30, 8), 1556)
93: ((25, 18, 48, 36, 16, 23, 34, 19, 0, 41, 1, 32, 15, 37, 20, 38, 29, 45, 28, 35, 47, 22, 14, 6, 5, 3, 49, 42, 11, 21, 12, 27, 9, 24, 31, 10, 17, 39, 2, 46, 26, 7, 44, 33, 13, 43, 4, 40, 30, 8), 1556)
94: ((25, 18, 48, 36, 16, 23, 34, 19, 0, 41, 1, 32, 15, 37, 20, 38, 29, 45, 28, 35, 47, 22, 14, 6, 5, 3, 49, 42, 11, 21, 12, 27, 9, 24, 31, 10, 17, 39, 2, 46, 26, 7, 44, 33, 13, 43, 4, 40, 30, 8), 1556)
95: ((25, 18, 48, 36, 16, 23, 34, 19, 0, 41, 1, 32, 15, 37, 20, 38, 29, 45, 28, 35, 47, 22, 14, 6, 5, 3, 49, 42, 11, 21, 12, 27, 9, 24, 31, 10, 17, 39, 2, 46, 26, 7, 44, 33, 13, 43, 4, 40, 30, 8), 1556)
Best: ((25, 18, 48, 36, 16, 23, 34, 19, 0, 41, 1, 32, 15, 37, 20, 38, 29, 45, 28, 35, 47, 22, 14, 6, 5, 3, 49, 42, 11, 21, 12, 27, 9, 24, 31, 10, 17, 39, 2, 46, 26, 7, 44, 33, 13, 43, 4, 40, 30, 8), 1556)
Runtime: 25.0492627 s